
Gurobi 9.1.2 (win64) logging started Sun Dec  5 18:17:09 2021

Gurobi Optimizer version 9.1.2 build v9.1.2rc0 (win64)
Thread count: 8 physical cores, 8 logical processors, using up to 8 threads
Optimize a model with 1 rows, 41 columns and 40 nonzeros
Model fingerprint: 0x52a3b782
Variable types: 1 continuous, 40 integer (40 binary)
Coefficient statistics:
  Matrix range     [1e+00, 1e+01]
  Objective range  [1e+00, 1e+00]
  Bounds range     [2e+01, 2e+01]
  RHS range        [1e+01, 1e+01]
Presolve time: 0.00s
Presolved: 1 rows, 41 columns, 40 nonzeros
Variable types: 1 continuous, 40 integer (40 binary)

Root simplex log...

Iteration    Objective       Primal Inf.    Dual Inf.      Time
       0   -1.7740597e+01   1.940818e-01   0.000000e+00     14s
       2   -1.7740597e+01   0.000000e+00   0.000000e+00     14s

Root relaxation: objective -1.774060e+01, 2 iterations, 0.00 seconds

    Nodes    |    Current Node    |     Objective Bounds      |     Work
 Expl Unexpl |  Obj  Depth IntInf | Incumbent    BestBd   Gap | It/Node Time

     0     0  -17.74060    0    1          -  -17.74060      -     -   14s
H    0     0                      -1.2061898  -17.74060  1371%     -   14s
     0     0  -17.74060    0    1   -1.20619  -17.74060  1371%     -   14s

Cutting planes:
  Lazy constraints: 3

Explored 1 nodes (2 simplex iterations) in 14.43 seconds
Thread count was 8 (of 8 available processors)

Solution count 1: -1.20619 
No other solutions better than -1.20619

Optimal solution found (tolerance 1.00e-04)
Best objective -1.206189808317e+00, best bound -1.206189808317e+00, gap 0.0000%

User-callback calls 73, time in user-callback 18.00 sec

Gurobi 9.1.2 (win64) logging started Mon Dec  6 12:53:50 2021

Gurobi Optimizer version 9.1.2 build v9.1.2rc0 (win64)
Thread count: 8 physical cores, 8 logical processors, using up to 8 threads
Optimize a model with 1 rows, 41 columns and 40 nonzeros
Model fingerprint: 0x52a3b782
Variable types: 1 continuous, 40 integer (40 binary)
Coefficient statistics:
  Matrix range     [1e+00, 1e+01]
  Objective range  [1e+00, 1e+00]
  Bounds range     [2e+01, 2e+01]
  RHS range        [1e+01, 1e+01]
Presolve time: 0.00s
Presolved: 1 rows, 41 columns, 40 nonzeros
Variable types: 1 continuous, 40 integer (40 binary)

Root simplex log...

Iteration    Objective       Primal Inf.    Dual Inf.      Time
       0   -1.7740597e+01   1.940818e-01   0.000000e+00     15s
       2   -1.7740597e+01   0.000000e+00   0.000000e+00     15s

Root relaxation: objective -1.774060e+01, 2 iterations, 0.00 seconds

    Nodes    |    Current Node    |     Objective Bounds      |     Work
 Expl Unexpl |  Obj  Depth IntInf | Incumbent    BestBd   Gap | It/Node Time

     0     0  -17.74060    0    1          -  -17.74060      -     -   14s
H    0     0                      -1.2061898  -17.74060  1371%     -   14s
H    0     0                     -17.7405967  -17.74060  0.00%     -   14s

Cutting planes:
  Lazy constraints: 2

Explored 1 nodes (2 simplex iterations) in 14.92 seconds
Thread count was 8 (of 8 available processors)

Solution count 2: -17.7406 -1.20619 
No other solutions better than -17.7406

Optimal solution found (tolerance 1.00e-04)
Best objective -1.774059666507e+01, best bound -1.774059666507e+01, gap 0.0000%

User-callback calls 72, time in user-callback 19.11 sec
